DIMENSION: 10
EDGE_WEIGHT_TYPE: EXPLICIT
EDGE_WEIGHT_FORMAT: FULL_MATRIX
EDGE_WEIGHT_SECTION:
32767 32767 32767 32767 86 32767 32767 32767 32767 32767 
32767 32767 17 32767 60 32767 38 32767 10 32767 
32767 17 32767 32767 48 32767 32767 32767 73 32767 
32767 32767 32767 32767 23 27 32767 39 32767 32767 
86 60 48 23 32767 32767 32767 32767 32767 32767 
32767 32767 32767 27 32767 32767 32767 32767 32767 32767 
32767 38 32767 32767 32767 32767 32767 72 88 32767 
32767 32767 32767 39 32767 32767 72 32767 35 92 
32767 10 73 32767 32767 32767 88 35 32767 23 
32767 32767 32767 32767 32767 32767 32767 92 23 32767 
EOF